93 82 56 3 35 99 7 47 87 19 18 6 22 16 60 83 32 86 84 94 45 63 53 71 27 38 12 68 58 48 91 88 97 51 17 30 13 89 9 78 66 59 98 76 10 37 29 28 36 49 0 96 43 11 70 64 4 46 61 21 23 8 55 95 79 65 54 2 92 74 33 85 81 52 50 62 67 77 75 24 44 15 1 31 34 90 5 25 41 40 42 39 69 72 26 14 80 57 73 20 

